Solver command line: []

Read LP format model from file C:\Users\wlhlm\AppData\Local\Temp\tmpl0ti9fy6.pyomo.lp
Reading time = 2.33 seconds
objective: 970608 rows, 878399 columns, 2138862 nonzeros
Set parameter MIPGap to value 0.02
Gurobi Optimizer version 12.0.1 build v12.0.1rc0 (win64 - Windows 11.0 (26100.2))

CPU model: Intel(R) Core(TM) Ultra 7 258V, instruction set [SSE2|AVX|AVX2]
Thread count: 8 physical cores, 8 logical processors, using up to 8 threads

Non-default parameters:
MIPGap  0.02

Optimize a model with 970608 rows, 878399 columns and 2138862 nonzeros
Model fingerprint: 0x26dbef60
Model has 8783 quadratic constraints
Variable types: 755424 continuous, 122975 integer (105408 binary)
Coefficient statistics:
  Matrix range     [6e-03, 2e+02]
  QMatrix range    [1e+00, 1e+00]
  Objective range  [1e-02, 4e+02]
  Bounds range     [1e+00, 3e+00]
  RHS range        [8e-05, 1e+04]
Presolve removed 776470 rows and 657904 columns
Presolve time: 0.54s
Presolved: 194138 rows, 220495 columns, 614221 nonzeros
Variable types: 145809 continuous, 74686 integer (65902 binary)
Performing another presolve...
Presolve removed 70271 rows and 70271 columns (presolve time = 6s)...
Presolve removed 70271 rows and 70271 columns
Presolve time: 5.95s
Deterministic concurrent LP optimizer: primal and dual simplex
Showing primal log only...


Root simplex log...

Iteration    Objective       Primal Inf.    Dual Inf.      Time
       0    1.3348908e+08   8.864151e+05   5.135618e+13      8s
   95579    1.2726996e+08   1.515058e+03   1.238289e+09     10s
Concurrent spin time: 0.26s

Solved with dual simplex

Root simplex log...

Iteration    Objective       Primal Inf.    Dual Inf.      Time
   75263    1.2712083e+08   0.000000e+00   0.000000e+00     10s

Root relaxation: objective 1.271208e+08, 75263 iterations, 3.20 seconds (5.73 work units)
Total elapsed time = 10.40s (DegenMoves)

    Nodes    |    Current Node    |     Objective Bounds      |     Work
 Expl Unexpl |  Obj  Depth IntInf | Incumbent    BestBd   Gap | It/Node Time

     0     0 1.2712e+08    0  246          - 1.2712e+08      -     -   11s
H    0     0                    1.354392e+08 1.2712e+08  6.14%     -   13s
     0     0 1.2712e+08    0  298 1.3544e+08 1.2712e+08  6.14%     -   13s
H    0     0                    1.272757e+08 1.2712e+08  0.12%     -   15s

Cutting planes:
  Gomory: 105
  Cover: 98
  Implied bound: 44
  MIR: 91
  Flow cover: 122
  RLT: 32
  Relax-and-lift: 43

Explored 1 nodes (80134 simplex iterations) in 15.26 seconds (24.79 work units)
Thread count was 8 (of 8 available processors)

Solution count 2: 1.27276e+08 1.35439e+08 

Optimal solution found (tolerance 2.00e-02)
Best objective 1.272757450580e+08, best bound 1.271216114500e+08, gap 0.1211%

